c File: flat50_3_0.col
c
c SOURCE: Joseph Culberson (joe@cs.ualberta.ca)
c DESCRIPTION: Quasi-random coloring problem
c              generated with flatness = 0
c                             probability = 0.139
c                             known coloring = 3
c                             random seed = 1681
c              Creation Date:  Tue Jun  9 12:15:15 1998
c Maximum degree = 8 Minimum degree = 1
c p edge 50 115
c cnf created by edge2cnf
p cnf 150 545
-1 -2 0
-1 -3 0
-2 -3 0
1 2 3 0
-4 -5 0
-4 -6 0
-5 -6 0
4 5 6 0
-7 -8 0
-7 -9 0
-8 -9 0
7 8 9 0
-10 -11 0
-10 -12 0
-11 -12 0
10 11 12 0
-13 -14 0
-13 -15 0
-14 -15 0
13 14 15 0
-16 -17 0
-16 -18 0
-17 -18 0
16 17 18 0
-19 -20 0
-19 -21 0
-20 -21 0
19 20 21 0
-22 -23 0
-22 -24 0
-23 -24 0
22 23 24 0
-25 -26 0
-25 -27 0
-26 -27 0
25 26 27 0
-28 -29 0
-28 -30 0
-29 -30 0
28 29 30 0
-31 -32 0
-31 -33 0
-32 -33 0
31 32 33 0
-34 -35 0
-34 -36 0
-35 -36 0
34 35 36 0
-37 -38 0
-37 -39 0
-38 -39 0
37 38 39 0
-40 -41 0
-40 -42 0
-41 -42 0
40 41 42 0
-43 -44 0
-43 -45 0
-44 -45 0
43 44 45 0
-46 -47 0
-46 -48 0
-47 -48 0
46 47 48 0
-49 -50 0
-49 -51 0
-50 -51 0
49 50 51 0
-52 -53 0
-52 -54 0
-53 -54 0
52 53 54 0
-55 -56 0
-55 -57 0
-56 -57 0
55 56 57 0
-58 -59 0
-58 -60 0
-59 -60 0
58 59 60 0
-61 -62 0
-61 -63 0
-62 -63 0
61 62 63 0
-64 -65 0
-64 -66 0
-65 -66 0
64 65 66 0
-67 -68 0
-67 -69 0
-68 -69 0
67 68 69 0
-70 -71 0
-70 -72 0
-71 -72 0
70 71 72 0
-73 -74 0
-73 -75 0
-74 -75 0
73 74 75 0
-76 -77 0
-76 -78 0
-77 -78 0
76 77 78 0
-79 -80 0
-79 -81 0
-80 -81 0
79 80 81 0
-82 -83 0
-82 -84 0
-83 -84 0
82 83 84 0
-85 -86 0
-85 -87 0
-86 -87 0
85 86 87 0
-88 -89 0
-88 -90 0
-89 -90 0
88 89 90 0
-91 -92 0
-91 -93 0
-92 -93 0
91 92 93 0
-94 -95 0
-94 -96 0
-95 -96 0
94 95 96 0
-97 -98 0
-97 -99 0
-98 -99 0
97 98 99 0
-100 -101 0
-100 -102 0
-101 -102 0
100 101 102 0
-103 -104 0
-103 -105 0
-104 -105 0
103 104 105 0
-106 -107 0
-106 -108 0
-107 -108 0
106 107 108 0
-109 -110 0
-109 -111 0
-110 -111 0
109 110 111 0
-112 -113 0
-112 -114 0
-113 -114 0
112 113 114 0
-115 -116 0
-115 -117 0
-116 -117 0
115 116 117 0
-118 -119 0
-118 -120 0
-119 -120 0
118 119 120 0
-121 -122 0
-121 -123 0
-122 -123 0
121 122 123 0
-124 -125 0
-124 -126 0
-125 -126 0
124 125 126 0
-127 -128 0
-127 -129 0
-128 -129 0
127 128 129 0
-130 -131 0
-130 -132 0
-131 -132 0
130 131 132 0
-133 -134 0
-133 -135 0
-134 -135 0
133 134 135 0
-136 -137 0
-136 -138 0
-137 -138 0
136 137 138 0
-139 -140 0
-139 -141 0
-140 -141 0
139 140 141 0
-142 -143 0
-142 -144 0
-143 -144 0
142 143 144 0
-145 -146 0
-145 -147 0
-146 -147 0
145 146 147 0
-148 -149 0
-148 -150 0
-149 -150 0
148 149 150 0
-70 -1 0
-71 -2 0
-72 -3 0
-76 -1 0
-77 -2 0
-78 -3 0
-91 -1 0
-92 -2 0
-93 -3 0
-97 -1 0
-98 -2 0
-99 -3 0
-115 -1 0
-116 -2 0
-117 -3 0
-73 -4 0
-74 -5 0
-75 -6 0
-91 -4 0
-92 -5 0
-93 -6 0
-136 -4 0
-137 -5 0
-138 -6 0
-142 -4 0
-143 -5 0
-144 -6 0
-52 -7 0
-53 -8 0
-54 -9 0
-79 -7 0
-80 -8 0
-81 -9 0
-103 -7 0
-104 -8 0
-105 -9 0
-112 -7 0
-113 -8 0
-114 -9 0
-115 -7 0
-116 -8 0
-117 -9 0
-127 -7 0
-128 -8 0
-129 -9 0
-85 -10 0
-86 -11 0
-87 -12 0
-109 -10 0
-110 -11 0
-111 -12 0
-139 -10 0
-140 -11 0
-141 -12 0
-145 -10 0
-146 -11 0
-147 -12 0
-148 -10 0
-149 -11 0
-150 -12 0
-85 -13 0
-86 -14 0
-87 -15 0
-94 -13 0
-95 -14 0
-96 -15 0
-97 -13 0
-98 -14 0
-99 -15 0
-124 -13 0
-125 -14 0
-126 -15 0
-58 -16 0
-59 -17 0
-60 -18 0
-76 -16 0
-77 -17 0
-78 -18 0
-82 -16 0
-83 -17 0
-84 -18 0
-85 -16 0
-86 -17 0
-87 -18 0
-103 -16 0
-104 -17 0
-105 -18 0
-130 -16 0
-131 -17 0
-132 -18 0
-139 -16 0
-140 -17 0
-141 -18 0
-121 -19 0
-122 -20 0
-123 -21 0
-124 -19 0
-125 -20 0
-126 -21 0
-145 -19 0
-146 -20 0
-147 -21 0
-61 -22 0
-62 -23 0
-63 -24 0
-55 -25 0
-56 -26 0
-57 -27 0
-79 -25 0
-80 -26 0
-81 -27 0
-88 -25 0
-89 -26 0
-90 -27 0
-91 -25 0
-92 -26 0
-93 -27 0
-127 -25 0
-128 -26 0
-129 -27 0
-67 -28 0
-68 -29 0
-69 -30 0
-130 -28 0
-131 -29 0
-132 -30 0
-142 -28 0
-143 -29 0
-144 -30 0
-82 -31 0
-83 -32 0
-84 -33 0
-91 -31 0
-92 -32 0
-93 -33 0
-106 -31 0
-107 -32 0
-108 -33 0
-109 -31 0
-110 -32 0
-111 -33 0
-52 -34 0
-53 -35 0
-54 -36 0
-55 -34 0
-56 -35 0
-57 -36 0
-61 -34 0
-62 -35 0
-63 -36 0
-94 -34 0
-95 -35 0
-96 -36 0
-115 -34 0
-116 -35 0
-117 -36 0
-136 -34 0
-137 -35 0
-138 -36 0
-55 -37 0
-56 -38 0
-57 -39 0
-64 -37 0
-65 -38 0
-66 -39 0
-109 -37 0
-110 -38 0
-111 -39 0
-124 -37 0
-125 -38 0
-126 -39 0
-148 -37 0
-149 -38 0
-150 -39 0
-64 -40 0
-65 -41 0
-66 -42 0
-73 -40 0
-74 -41 0
-75 -42 0
-85 -40 0
-86 -41 0
-87 -42 0
-136 -40 0
-137 -41 0
-138 -42 0
-148 -40 0
-149 -41 0
-150 -42 0
-70 -43 0
-71 -44 0
-72 -45 0
-100 -43 0
-101 -44 0
-102 -45 0
-124 -43 0
-125 -44 0
-126 -45 0
-139 -43 0
-140 -44 0
-141 -45 0
-55 -46 0
-56 -47 0
-57 -48 0
-64 -46 0
-65 -47 0
-66 -48 0
-94 -46 0
-95 -47 0
-96 -48 0
-109 -46 0
-110 -47 0
-111 -48 0
-115 -46 0
-116 -47 0
-117 -48 0
-127 -46 0
-128 -47 0
-129 -48 0
-61 -49 0
-62 -50 0
-63 -51 0
-100 -49 0
-101 -50 0
-102 -51 0
-118 -49 0
-119 -50 0
-120 -51 0
-133 -49 0
-134 -50 0
-135 -51 0
-142 -49 0
-143 -50 0
-144 -51 0
-109 -52 0
-110 -53 0
-111 -54 0
-139 -52 0
-140 -53 0
-141 -54 0
-112 -55 0
-113 -56 0
-114 -57 0
-133 -55 0
-134 -56 0
-135 -57 0
-148 -55 0
-149 -56 0
-150 -57 0
-112 -58 0
-113 -59 0
-114 -60 0
-121 -58 0
-122 -59 0
-123 -60 0
-142 -58 0
-143 -59 0
-144 -60 0
-145 -58 0
-146 -59 0
-147 -60 0
-103 -61 0
-104 -62 0
-105 -63 0
-106 -61 0
-107 -62 0
-108 -63 0
-118 -61 0
-119 -62 0
-120 -63 0
-109 -64 0
-110 -65 0
-111 -66 0
-127 -64 0
-128 -65 0
-129 -66 0
-142 -64 0
-143 -65 0
-144 -66 0
-109 -67 0
-110 -68 0
-111 -69 0
-130 -67 0
-131 -68 0
-132 -69 0
-142 -67 0
-143 -68 0
-144 -69 0
-118 -70 0
-119 -71 0
-120 -72 0
-124 -70 0
-125 -71 0
-126 -72 0
-133 -70 0
-134 -71 0
-135 -72 0
-139 -73 0
-140 -74 0
-141 -75 0
-133 -76 0
-134 -77 0
-135 -78 0
-118 -79 0
-119 -80 0
-120 -81 0
-112 -82 0
-113 -83 0
-114 -84 0
-106 -85 0
-107 -86 0
-108 -87 0
-121 -85 0
-122 -86 0
-123 -87 0
-130 -85 0
-131 -86 0
-132 -87 0
-148 -85 0
-149 -86 0
-150 -87 0
-103 -88 0
-104 -89 0
-105 -90 0
-109 -88 0
-110 -89 0
-111 -90 0
-145 -88 0
-146 -89 0
-147 -90 0
-148 -88 0
-149 -89 0
-150 -90 0
-133 -91 0
-134 -92 0
-135 -93 0
-148 -94 0
-149 -95 0
-150 -96 0
-121 -97 0
-122 -98 0
-123 -99 0
-130 -100 0
-131 -101 0
-132 -102 0
